#pLT is two-dimensional [i,r]=[component, individual]
#[i,*] means all data in row i.

param pLT := 
[1,*]
1  0    2  5    3  6    4  7    5  9    6  5    

[2,*]
1  2    2  4    3  5    4  6    5  3    6  5    
;